n_res = 4;
rc = [ 22, 25, 23, 23 ];
n_tasks = 30;
d = [ 5, 8, 10, 10, 9, 7, 1, 5, 10, 10, 8, 4, 9, 8, 8, 1, 9, 10, 8, 5, 6, 5, 9, 6, 1, 10, 8, 8, 2, 10 ];
rr = [| 0, 0, 5, 4, 2, 5, 5, 2, 9, 9, 3, 0, 9, 7, 2, 9, 1, 0, 0, 1, 9, 3, 0, 3, 0, 0, 5, 0, 7, 6
      | 7, 7, 0, 7, 0, 8, 7, 6, 8, 0, 3, 0, 8, 5, 9, 0, 0, 0, 1, 0, 4, 6, 0, 10, 0, 9, 0, 0, 0, 6
      | 1, 0, 0, 0, 0, 0, 10, 0, 0, 0, 4, 0, 3, 0, 0, 0, 0, 4, 7, 10, 0, 0, 6, 0, 10, 0, 0, 0, 0, 7
      | 0, 5, 3, 0, 10, 0, 0, 0, 0, 8, 8, 8, 0, 0, 0, 6, 8, 7, 5, 0, 0, 0, 0, 0, 0, 0, 0, 1, 4, 7 |];
suc = [ { 2 }, 
        { 1 }, 
        { 4 }, 
        { 3 }, 
        { 6 }, 
        { 5 }, 
        { 8 }, 
        { 7 }, 
        { 10 }, 
        { 9 }, 
        { 12 }, 
        { 11 }, 
        { 14 }, 
        { 13 }, 
        { 16 }, 
        { 15 }, 
        { 18 }, 
        { 17 }, 
        { 20 }, 
        { 19 }, 
        { 22 }, 
        { 21 }, 
        { 24 }, 
        { 23 }, 
        { 26 }, 
        { 25 }, 
        { 28 }, 
        { 27 }, 
        { 30 }, 
        { 29 }]; 
